(set-info :smt-lib-version 2.6)
(set-logic QF_S)
(set-info :source |
Generated by: Hung-En Wang, Tzung-Lin Tsai, Chun-Han Lin, Fang Yu, and Jie-Hong R. Jiang
Generated on: 2019-02-28
Generator: Stranger
Application: Security analysis of string manipulating web applications
Target solver: CVC4, Norn, Z3-str2
Publication:
Hung-En Wang, Tzung-Lin Tsai, Chun-Han Lin, Fang Yu, Jie-Hong R. Jiang:
String Analysis via Automata Manipulation with Logic Circuit Representation. CAV (1) 2016: 241-260.
|)
(set-info :license "https://creativecommons.org/licenses/by/4.0/")
(set-info :category "industrial")
(set-info :status unknown)

(declare-fun sigmaStar_0 () String)
(declare-fun sigmaStar_1 () String)
(declare-fun sigmaStar_2 () String)
(declare-fun sigmaStar_3 () String)
(declare-fun sigmaStar_4 () String)
(declare-fun sigmaStar_5 () String)
(declare-fun sigmaStar_6 () String)
(declare-fun sigmaStar_7 () String)
(declare-fun sigmaStar_8 () String)
(declare-fun sigmaStar_9 () String)
(declare-fun sigmaStar_10 () String)
(declare-fun sigmaStar_11 () String)
(declare-fun sigmaStar_12 () String)
(declare-fun sigmaStar_13 () String)
(declare-fun sigmaStar_14 () String)
(declare-fun sigmaStar_15 () String)
(declare-fun sigmaStar_16 () String)
(declare-fun sigmaStar_17 () String)
(declare-fun sigmaStar_18 () String)
(declare-fun sigmaStar_19 () String)
(declare-fun sigmaStar_20 () String)
(declare-fun sigmaStar_21 () String)
(declare-fun sigmaStar_22 () String)
(declare-fun sigmaStar_23 () String)
(declare-fun sigmaStar_24 () String)
(declare-fun sigmaStar_25 () String)
(declare-fun sigmaStar_26 () String)
(declare-fun sigmaStar_27 () String)
(declare-fun sigmaStar_28 () String)
(declare-fun sigmaStar_29 () String)
(declare-fun sigmaStar_30 () String)
(declare-fun sigmaStar_31 () String)
(declare-fun sigmaStar_32 () String)
(declare-fun literal_80 () String)
(declare-fun literal_83 () String)
(declare-fun x_84 () String)
(declare-fun literal_86 () String)
(declare-fun x_79 () String)
(declare-fun epsilon () String)
(declare-fun literal_42 () String)
(declare-fun literal_38 () String)
(declare-fun literal_39 () String)
(declare-fun literal_35 () String)
(declare-fun literal_36 () String)
(declare-fun x_87 () String)
(declare-fun x_88 () String)
(declare-fun x_89 () String)
(declare-fun literal_90 () String)
(declare-fun x_91 () String)
(declare-fun x_93 () String)
(declare-fun x_94 () String)
(declare-fun sigmaStar_99 () String)
(declare-fun literal_105 () String)
(declare-fun x_103 () String)
(declare-fun x_106 () String)
(declare-fun literal_114 () String)
(declare-fun x_109 () String)
(declare-fun literal_107 () String)
(declare-fun x_118 () String)
(declare-fun literal_123 () String)
(declare-fun x_129 () String)
(declare-fun literal_126 () String)
(declare-fun x_122 () String)
(declare-fun x_134 () String)
(declare-fun literal_138 () String)
(declare-fun x_140 () String)
(declare-fun literal_139 () String)
(declare-fun x_141 () String)
(declare-fun literal_132 () String)
(declare-fun x_124 () String)
(declare-fun x_144 () String)
(declare-fun sigmaStar_160 () String)
(declare-fun literal_146 () String)
(declare-fun x_164 () String)
(declare-fun literal_150 () String)
(declare-fun x_135 () String)
(declare-fun x_165 () String)
(declare-fun literal_156 () String)
(declare-fun x_142 () String)
(declare-fun x_167 () String)
(declare-fun literal_161 () String)
(declare-fun x_171 () String)
(declare-fun literal_173 () String)
(declare-fun x_163 () String)
(declare-fun x_182 () String)
(declare-fun x_110 () String)
(declare-fun x_183 () String)
(declare-fun literal_177 () String)
(declare-fun x_185 () String)
(declare-fun literal_166 () String)
(declare-fun x_151 () String)
(declare-fun x_186 () String)
(declare-fun literal_180 () String)
(declare-fun x_188 () String)
(declare-fun literal_168 () String)
(declare-fun x_157 () String)
(declare-fun x_189 () String)
(declare-fun literal_181 () String)
(declare-fun x_169 () String)
(declare-fun x_190 () String)
(declare-fun x_191 () String)
(declare-fun literal_194 () String)
(declare-fun x_214 () String)
(declare-fun literal_195 () String)
(declare-fun x_174 () String)
(declare-fun x_215 () String)
(declare-fun literal_196 () String)
(declare-fun x_216 () String)
(declare-fun x_176 () String)
(declare-fun x_219 () String)
(declare-fun literal_200 () String)
(declare-fun x_220 () String)
(declare-fun x_179 () String)
(declare-fun x_223 () String)
(declare-fun literal_204 () String)
(declare-fun x_224 () String)
(declare-fun literal_206 () String)
(declare-fun x_226 () String)
(declare-fun literal_207 () String)
(declare-fun x_170 () String)
(declare-fun x_227 () String)
(declare-fun literal_208 () String)
(declare-fun x_228 () String)
(declare-fun literal_213 () String)
(declare-fun x_192 () String)
(declare-fun x_231 () String)
(declare-fun x_133 () String)
(declare-fun x_240 () String)
(declare-fun literal_232 () String)
(declare-fun x_241 () String)
(declare-fun literal_217 () String)
(declare-fun x_242 () String)
(declare-fun literal_218 () String)
(declare-fun x_198 () String)
(declare-fun x_243 () String)
(declare-fun literal_233 () String)
(declare-fun x_244 () String)
(declare-fun literal_221 () String)
(declare-fun x_245 () String)
(declare-fun literal_222 () String)
(declare-fun x_202 () String)
(declare-fun x_246 () String)
(declare-fun literal_234 () String)
(declare-fun x_247 () String)
(declare-fun literal_225 () String)
(declare-fun x_248 () String)
(declare-fun x_249 () String)
(declare-fun literal_235 () String)
(declare-fun x_250 () String)
(declare-fun literal_229 () String)
(declare-fun x_251 () String)
(declare-fun literal_239 () String)
(declare-fun x_253 () String)
(declare-fun literal_254 () String)
(declare-fun x_258 () String)
(declare-fun x_259 () String)
(declare-fun literal_255 () String)
(declare-fun x_260 () String)
(declare-fun x_261 () String)
(declare-fun literal_256 () String)
(declare-fun x_262 () String)
(declare-fun x_263 () String)
(declare-fun literal_257 () String)
(declare-fun x_264 () String)
(declare-fun x_265 () String)
(declare-fun literal_252 () String)
(declare-fun x_236 () String)
(declare-fun x_266 () String)
(declare-fun x_238 () String)
(declare-fun x_267 () String)
(declare-fun x_270 () String)
(declare-fun x_271 () String)
(declare-fun x_272 () String)
(declare-fun x_273 () String)
(declare-fun literal_268 () String)
(declare-fun x_274 () String)
(declare-fun literal_269 () String)
(declare-fun x_275 () String)
(declare-fun literal_276 () String)
(declare-fun x_280 () String)
(declare-fun literal_277 () String)
(declare-fun x_281 () String)
(declare-fun literal_278 () String)
(declare-fun x_282 () String)
(declare-fun literal_279 () String)
(declare-fun x_283 () String)
(declare-fun literal_193 () String)
(declare-fun x_284 () String)
(declare-fun x_285 () String)
(declare-fun x_291 () String)
(assert (= literal_80 ""))
(assert (= literal_83 "\u{26}\u{61}\u{6d}\u{70}\u{3b}\u{63}\u{61}\u{6c}\u{5f}\u{64}\u{3d}\u{31}"))
(assert (= x_84 (str.++ literal_80 literal_83)))
(assert (= literal_86 "\u{26}\u{61}\u{6d}\u{70}\u{3b}\u{63}\u{61}\u{6c}\u{5f}\u{6d}\u{3d}"))
(assert (= epsilon ""))
(assert (= literal_42 "\u{63}\u{61}\u{6c}\u{5f}\u{79}"))
(assert (= literal_38 ""))
(assert (= literal_39 ""))
(assert (= literal_35 ""))
(assert (= literal_36 ""))
(assert (or (= x_79 epsilon) (= x_79 literal_42) (= x_79 literal_38) (= x_79 literal_39) (= x_79 literal_35) (= x_79 literal_36)))
(assert (= x_87 (str.++ literal_86 x_79)))
(assert (or (= x_88 x_84) (= x_88 literal_80)))
(assert (= x_89 (str.++ x_88 x_87)))
(assert (= literal_90 "\u{26}\u{61}\u{6d}\u{70}\u{3b}\u{63}\u{61}\u{6c}\u{5f}\u{79}\u{3d}"))
(assert (= x_91 (str.++ literal_90 x_79)))
(assert (or (= x_93 x_84) (= x_93 literal_80) (= x_93 x_89)))
(assert (= x_94 (str.++ x_93 x_91)))
(assert (= literal_105 "\u{2f}\u{63}\u{61}\u{6c}\u{65}\u{6e}\u{64}\u{61}\u{72}\u{2f}\u{76}\u{69}\u{65}\u{77}\u{2e}\u{70}\u{68}\u{70}\u{3f}\u{76}\u{69}\u{65}\u{77}\u{3d}\u{6d}\u{6f}\u{6e}\u{74}\u{68}\u{26}\u{61}\u{6d}\u{70}\u{3b}"))
(assert (or (= x_103 x_84) (= x_103 literal_80) (= x_103 x_94) (= x_103 sigmaStar_99) (= x_103 x_89)))
(assert (= x_106 (str.++ literal_105 x_103)))
(assert (= literal_114 "\u{3c}\u{61}\u{20}\u{68}\u{72}\u{65}\u{66}\u{3d}\u{22}"))
(assert (= literal_107 ""))
(assert (or (= x_109 literal_107) (= x_109 x_106)))
(assert (= x_118 (str.++ literal_114 x_109)))
(assert (= literal_123 "\u{22}\u{3e}"))
(assert (= x_129 (str.++ x_118 literal_123)))
(assert (= literal_126 "\u{3c}\u{73}\u{70}\u{61}\u{6e}\u{20}\u{63}\u{6c}\u{61}\u{73}\u{73}\u{3d}\u{22}\u{70}\u{72}\u{65}\u{76}\u{69}\u{6f}\u{75}\u{73}\u{22}\u{3e}\u{3c}\u{61}\u{20}\u{68}\u{72}\u{65}\u{66}\u{3d}\u{22}"))
(assert (or (= x_122 literal_107) (= x_122 x_106)))
(assert (= x_134 (str.++ literal_126 x_122)))
(assert (= literal_138 "\u{3c}\u{69}\u{6d}\u{67}\u{20}\u{73}\u{72}\u{63}\u{3d}\u{22}\u{2f}\u{61}\u{2f}\u{72}\u{5f}\u{70}\u{72}\u{65}\u{76}\u{69}\u{6f}\u{75}\u{73}\u{2e}\u{67}\u{69}\u{66}\u{22}\u{20}\u{61}\u{6c}\u{74}\u{3d}\u{22}\u{6d}\u{6f}\u{6e}\u{74}\u{68}\u{70}\u{72}\u{65}\u{76}\u{22}\u{20}\u{63}\u{6c}\u{61}\u{73}\u{73}\u{3d}\u{22}\u{72}\u{65}\u{73}\u{69}\u{7a}\u{65}\u{22}\u{20}\u{2f}\u{3e}"))
(assert (= x_140 (str.++ x_129 literal_138)))
(assert (= literal_139 "\u{3c}\u{2f}\u{61}\u{3e}"))
(assert (= x_141 (str.++ x_140 literal_139)))
(assert (= literal_132 "\u{3c}\u{73}\u{70}\u{61}\u{6e}\u{20}\u{63}\u{6c}\u{61}\u{73}\u{73}\u{3d}\u{22}\u{70}\u{72}\u{65}\u{76}\u{69}\u{6f}\u{75}\u{73}\u{22}\u{3e}\u{3c}\u{61}\u{20}\u{68}\u{72}\u{65}\u{66}\u{3d}\u{22}"))
(assert (or (= x_124 literal_107) (= x_124 x_106)))
(assert (= x_144 (str.++ literal_132 x_124)))
(assert (= literal_146 "\u{22}\u{3e}\u{26}\u{6c}\u{74}\u{3b}\u{20}"))
(assert (= x_164 (str.++ x_134 literal_146)))
(assert (= literal_150 "\u{3c}\u{73}\u{70}\u{61}\u{6e}\u{20}\u{63}\u{6c}\u{61}\u{73}\u{73}\u{3d}\u{22}\u{68}\u{69}\u{64}\u{65}\u{22}\u{3e}\u{20}\u{7c}\u{20}\u{3c}\u{2f}\u{73}\u{70}\u{61}\u{6e}\u{3e}\u{3c}\u{73}\u{70}\u{61}\u{6e}\u{20}\u{63}\u{6c}\u{61}\u{73}\u{73}\u{3d}\u{22}\u{63}\u{75}\u{72}\u{72}\u{65}\u{6e}\u{74}\u{22}\u{3e}\u{3c}\u{61}\u{20}\u{68}\u{72}\u{65}\u{66}\u{3d}\u{22}"))
(assert (or (= x_135 literal_107) (= x_135 x_106)))
(assert (= x_165 (str.++ literal_150 x_135)))
(assert (= literal_156 "\u{3c}\u{73}\u{70}\u{61}\u{6e}\u{20}\u{63}\u{6c}\u{61}\u{73}\u{73}\u{3d}\u{22}\u{68}\u{69}\u{64}\u{65}\u{22}\u{3e}\u{20}\u{7c}\u{20}\u{3c}\u{2f}\u{73}\u{70}\u{61}\u{6e}\u{3e}\u{3c}\u{73}\u{70}\u{61}\u{6e}\u{20}\u{63}\u{6c}\u{61}\u{73}\u{73}\u{3d}\u{22}\u{63}\u{75}\u{72}\u{72}\u{65}\u{6e}\u{74}\u{22}\u{3e}\u{3c}\u{61}\u{20}\u{68}\u{72}\u{65}\u{66}\u{3d}\u{22}"))
(assert (or (= x_142 literal_107) (= x_142 x_106)))
(assert (= x_167 (str.++ literal_156 x_142)))
(assert (= literal_161 "\u{22}\u{3e}\u{26}\u{6c}\u{74}\u{3b}\u{20}"))
(assert (= x_171 (str.++ x_144 literal_161)))
(assert (= literal_173 "\u{3c}\u{73}\u{70}\u{61}\u{6e}\u{20}\u{63}\u{6c}\u{61}\u{73}\u{73}\u{3d}\u{22}\u{68}\u{69}\u{64}\u{65}\u{22}\u{3e}\u{20}\u{7c}\u{20}\u{3c}\u{2f}\u{73}\u{70}\u{61}\u{6e}\u{3e}\u{3c}\u{73}\u{70}\u{61}\u{6e}\u{20}\u{63}\u{6c}\u{61}\u{73}\u{73}\u{3d}\u{22}\u{6e}\u{65}\u{78}\u{74}\u{22}\u{3e}\u{3c}\u{61}\u{20}\u{68}\u{72}\u{65}\u{66}\u{3d}\u{22}"))
(assert (or (= x_163 literal_107) (= x_163 x_106)))
(assert (= x_182 (str.++ literal_173 x_163)))
(assert (or (= x_110 literal_38) (= x_110 literal_39)))
(assert (= x_183 (str.++ x_164 x_110)))
(assert (= literal_177 "\u{22}\u{3e}"))
(assert (= x_185 (str.++ x_165 literal_177)))
(assert (= literal_166 "\u{3c}\u{73}\u{70}\u{61}\u{6e}\u{20}\u{63}\u{6c}\u{61}\u{73}\u{73}\u{3d}\u{22}\u{70}\u{72}\u{65}\u{76}\u{69}\u{6f}\u{75}\u{73}\u{22}\u{20}\u{74}\u{69}\u{74}\u{6c}\u{65}\u{3d}\u{22}\u{6d}\u{6f}\u{6e}\u{74}\u{68}\u{70}\u{72}\u{65}\u{76}\u{22}\u{3e}"))
(assert (or (= x_151 x_141) (= x_151 literal_138)))
(assert (= x_186 (str.++ literal_166 x_151)))
(assert (= literal_180 "\u{22}\u{3e}"))
(assert (= x_188 (str.++ x_167 literal_180)))
(assert (= literal_168 "\u{3c}\u{73}\u{70}\u{61}\u{6e}\u{20}\u{63}\u{6c}\u{61}\u{73}\u{73}\u{3d}\u{22}\u{70}\u{72}\u{65}\u{76}\u{69}\u{6f}\u{75}\u{73}\u{22}\u{20}\u{74}\u{69}\u{74}\u{6c}\u{65}\u{3d}\u{22}\u{6d}\u{6f}\u{6e}\u{74}\u{68}\u{70}\u{72}\u{65}\u{76}\u{22}\u{3e}"))
(assert (or (= x_157 x_141) (= x_157 literal_138)))
(assert (= x_189 (str.++ literal_168 x_157)))
(assert (= literal_181 "\u{3c}\u{73}\u{70}\u{61}\u{6e}\u{20}\u{63}\u{6c}\u{61}\u{73}\u{73}\u{3d}\u{22}\u{68}\u{69}\u{64}\u{65}\u{22}\u{3e}\u{20}\u{7c}\u{20}\u{3c}\u{2f}\u{73}\u{70}\u{61}\u{6e}\u{3e}\u{3c}\u{73}\u{70}\u{61}\u{6e}\u{20}\u{63}\u{6c}\u{61}\u{73}\u{73}\u{3d}\u{22}\u{6e}\u{65}\u{78}\u{74}\u{22}\u{3e}\u{3c}\u{61}\u{20}\u{68}\u{72}\u{65}\u{66}\u{3d}\u{22}"))
(assert (or (= x_169 literal_107) (= x_169 x_106)))
(assert (= x_190 (str.++ literal_181 x_169)))
(assert (= x_191 (str.++ x_171 sigmaStar_160)))
(assert (= literal_194 "\u{22}\u{3e}"))
(assert (= x_214 (str.++ x_182 literal_194)))
(assert (= literal_195 "\u{3c}\u{73}\u{70}\u{61}\u{6e}\u{20}\u{63}\u{6c}\u{61}\u{73}\u{73}\u{3d}\u{22}\u{68}\u{69}\u{64}\u{65}\u{22}\u{3e}\u{20}\u{7c}\u{20}\u{3c}\u{2f}\u{73}\u{70}\u{61}\u{6e}\u{3e}\u{3c}\u{73}\u{70}\u{61}\u{6e}\u{20}\u{63}\u{6c}\u{61}\u{73}\u{73}\u{3d}\u{22}\u{63}\u{75}\u{72}\u{72}\u{65}\u{6e}\u{74}\u{22}\u{3e}"))
(assert (or (= x_174 epsilon) (= x_174 literal_42) (= x_174 literal_38) (= x_174 literal_39) (= x_174 literal_35) (= x_174 literal_36)))
(assert (= x_215 (str.++ literal_195 x_174)))
(assert (= literal_196 "\u{3c}\u{2f}\u{61}\u{3e}\u{3c}\u{2f}\u{73}\u{70}\u{61}\u{6e}\u{3e}"))
(assert (= x_216 (str.++ x_183 literal_196)))
(assert (or (= x_176 epsilon) (= x_176 literal_42) (= x_176 literal_38) (= x_176 literal_39) (= x_176 literal_35) (= x_176 literal_36)))
(assert (= x_219 (str.++ x_185 x_176)))
(assert (= literal_200 "\u{3c}\u{2f}\u{73}\u{70}\u{61}\u{6e}\u{3e}\u{5c}\u{6e}"))
(assert (= x_220 (str.++ x_186 literal_200)))
(assert (or (= x_179 epsilon) (= x_179 literal_42) (= x_179 literal_38) (= x_179 literal_39) (= x_179 literal_35) (= x_179 literal_36)))
(assert (= x_223 (str.++ x_188 x_179)))
(assert (= literal_204 "\u{3c}\u{2f}\u{73}\u{70}\u{61}\u{6e}\u{3e}\u{5c}\u{6e}"))
(assert (= x_224 (str.++ x_189 literal_204)))
(assert (= literal_206 "\u{22}\u{3e}"))
(assert (= x_226 (str.++ x_190 literal_206)))
(assert (= literal_207 "\u{3c}\u{73}\u{70}\u{61}\u{6e}\u{20}\u{63}\u{6c}\u{61}\u{73}\u{73}\u{3d}\u{22}\u{68}\u{69}\u{64}\u{65}\u{22}\u{3e}\u{20}\u{7c}\u{20}\u{3c}\u{2f}\u{73}\u{70}\u{61}\u{6e}\u{3e}\u{3c}\u{73}\u{70}\u{61}\u{6e}\u{20}\u{63}\u{6c}\u{61}\u{73}\u{73}\u{3d}\u{22}\u{63}\u{75}\u{72}\u{72}\u{65}\u{6e}\u{74}\u{22}\u{3e}"))
(assert (or (= x_170 epsilon) (= x_170 literal_42) (= x_170 literal_38) (= x_170 literal_39) (= x_170 literal_35) (= x_170 literal_36)))
(assert (= x_227 (str.++ literal_207 x_170)))
(assert (= literal_208 "\u{3c}\u{2f}\u{61}\u{3e}\u{3c}\u{2f}\u{73}\u{70}\u{61}\u{6e}\u{3e}\u{5c}\u{6e}"))
(assert (= x_228 (str.++ x_191 literal_208)))
(assert (= literal_213 "\u{3c}\u{64}\u{69}\u{76}\u{20}\u{73}\u{74}\u{79}\u{6c}\u{65}\u{3d}\u{22}\u{74}\u{65}\u{78}\u{74}\u{2d}\u{61}\u{6c}\u{69}\u{67}\u{6e}\u{3a}\u{20}\u{63}\u{65}\u{6e}\u{74}\u{65}\u{72}\u{3b}\u{22}\u{3e}\u{3c}\u{61}\u{20}\u{68}\u{72}\u{65}\u{66}\u{3d}\u{22}"))
(assert (or (= x_192 literal_107) (= x_192 x_106)))
(assert (= x_231 (str.++ literal_213 x_192)))
(assert (or (= x_133 literal_35) (= x_133 literal_36)))
(assert (= x_240 (str.++ x_214 x_133)))
(assert (= literal_232 "\u{3c}\u{2f}\u{73}\u{70}\u{61}\u{6e}\u{3e}\u{5c}\u{6e}"))
(assert (= x_241 (str.++ x_215 literal_232)))
(assert (= literal_217 "\u{3c}\u{64}\u{69}\u{76}\u{20}\u{63}\u{6c}\u{61}\u{73}\u{73}\u{3d}\u{22}\u{63}\u{61}\u{6c}\u{65}\u{6e}\u{64}\u{61}\u{72}\u{2d}\u{63}\u{6f}\u{6e}\u{74}\u{72}\u{6f}\u{6c}\u{73}\u{22}\u{3e}"))
(assert (= x_242 (str.++ literal_217 x_216)))
(assert (= literal_218 "\u{3c}\u{73}\u{70}\u{61}\u{6e}\u{20}\u{63}\u{6c}\u{61}\u{73}\u{73}\u{3d}\u{22}\u{68}\u{69}\u{64}\u{65}\u{22}\u{3e}\u{20}\u{7c}\u{20}\u{3c}\u{2f}\u{73}\u{70}\u{61}\u{6e}\u{3e}\u{3c}\u{73}\u{70}\u{61}\u{6e}\u{20}\u{63}\u{6c}\u{61}\u{73}\u{73}\u{3d}\u{22}\u{6e}\u{65}\u{78}\u{74}\u{22}\u{20}\u{74}\u{69}\u{74}\u{6c}\u{65}\u{3d}\u{22}\u{6d}\u{6f}\u{6e}\u{74}\u{68}\u{6e}\u{65}\u{78}\u{74}\u{22}\u{3e}"))
(assert (or (= x_198 x_141) (= x_198 literal_138)))
(assert (= x_243 (str.++ literal_218 x_198)))
(assert (= literal_233 "\u{3c}\u{2f}\u{61}\u{3e}\u{3c}\u{2f}\u{73}\u{70}\u{61}\u{6e}\u{3e}"))
(assert (= x_244 (str.++ x_219 literal_233)))
(assert (= literal_221 "\u{3c}\u{64}\u{69}\u{76}\u{20}\u{63}\u{6c}\u{61}\u{73}\u{73}\u{3d}\u{22}\u{63}\u{61}\u{6c}\u{65}\u{6e}\u{64}\u{61}\u{72}\u{2d}\u{63}\u{6f}\u{6e}\u{74}\u{72}\u{6f}\u{6c}\u{73}\u{22}\u{3e}"))
(assert (= x_245 (str.++ literal_221 x_220)))
(assert (= literal_222 "\u{3c}\u{73}\u{70}\u{61}\u{6e}\u{20}\u{63}\u{6c}\u{61}\u{73}\u{73}\u{3d}\u{22}\u{68}\u{69}\u{64}\u{65}\u{22}\u{3e}\u{20}\u{7c}\u{20}\u{3c}\u{2f}\u{73}\u{70}\u{61}\u{6e}\u{3e}\u{3c}\u{73}\u{70}\u{61}\u{6e}\u{20}\u{63}\u{6c}\u{61}\u{73}\u{73}\u{3d}\u{22}\u{6e}\u{65}\u{78}\u{74}\u{22}\u{20}\u{74}\u{69}\u{74}\u{6c}\u{65}\u{3d}\u{22}\u{6d}\u{6f}\u{6e}\u{74}\u{68}\u{6e}\u{65}\u{78}\u{74}\u{22}\u{3e}"))
(assert (or (= x_202 x_141) (= x_202 literal_138)))
(assert (= x_246 (str.++ literal_222 x_202)))
(assert (= literal_234 "\u{3c}\u{2f}\u{61}\u{3e}\u{3c}\u{2f}\u{73}\u{70}\u{61}\u{6e}\u{3e}"))
(assert (= x_247 (str.++ x_223 literal_234)))
(assert (= literal_225 "\u{3c}\u{64}\u{69}\u{76}\u{20}\u{63}\u{6c}\u{61}\u{73}\u{73}\u{3d}\u{22}\u{63}\u{61}\u{6c}\u{65}\u{6e}\u{64}\u{61}\u{72}\u{2d}\u{63}\u{6f}\u{6e}\u{74}\u{72}\u{6f}\u{6c}\u{73}\u{22}\u{3e}"))
(assert (= x_248 (str.++ literal_225 x_224)))
(assert (= x_249 (str.++ x_226 sigmaStar_160)))
(assert (= literal_235 "\u{3c}\u{2f}\u{73}\u{70}\u{61}\u{6e}\u{3e}"))
(assert (= x_250 (str.++ x_227 literal_235)))
(assert (= literal_229 "\u{3c}\u{64}\u{69}\u{76}\u{20}\u{63}\u{6c}\u{61}\u{73}\u{73}\u{3d}\u{22}\u{63}\u{61}\u{6c}\u{65}\u{6e}\u{64}\u{61}\u{72}\u{2d}\u{63}\u{6f}\u{6e}\u{74}\u{72}\u{6f}\u{6c}\u{73}\u{22}\u{3e}"))
(assert (= x_251 (str.++ literal_229 x_228)))
(assert (= literal_239 "\u{22}\u{3e}"))
(assert (= x_253 (str.++ x_231 literal_239)))
(assert (= literal_254 "\u{20}\u{26}\u{67}\u{74}\u{3b}\u{3c}\u{2f}\u{61}\u{3e}\u{3c}\u{2f}\u{73}\u{70}\u{61}\u{6e}\u{3e}\u{5c}\u{6e}"))
(assert (= x_258 (str.++ x_240 literal_254)))
(assert (= x_259 (str.++ x_242 x_241)))
(assert (= literal_255 "\u{3c}\u{2f}\u{73}\u{70}\u{61}\u{6e}\u{3e}\u{5c}\u{6e}"))
(assert (= x_260 (str.++ x_243 literal_255)))
(assert (= x_261 (str.++ x_245 x_244)))
(assert (= literal_256 "\u{3c}\u{2f}\u{73}\u{70}\u{61}\u{6e}\u{3e}\u{5c}\u{6e}"))
(assert (= x_262 (str.++ x_246 literal_256)))
(assert (= x_263 (str.++ x_248 x_247)))
(assert (= literal_257 "\u{20}\u{26}\u{67}\u{74}\u{3b}\u{3c}\u{2f}\u{61}\u{3e}\u{3c}\u{2f}\u{73}\u{70}\u{61}\u{6e}\u{3e}\u{5c}\u{6e}"))
(assert (= x_264 (str.++ x_249 literal_257)))
(assert (= x_265 (str.++ x_251 x_250)))
(assert (= literal_252 "\u{3c}\u{64}\u{69}\u{76}\u{20}\u{73}\u{74}\u{79}\u{6c}\u{65}\u{3d}\u{22}\u{74}\u{65}\u{78}\u{74}\u{2d}\u{61}\u{6c}\u{69}\u{67}\u{6e}\u{3a}\u{20}\u{63}\u{65}\u{6e}\u{74}\u{65}\u{72}\u{3b}\u{22}\u{3e}\u{3c}\u{61}\u{20}\u{68}\u{72}\u{65}\u{66}\u{3d}\u{22}\u{2f}\u{63}\u{61}\u{6c}\u{65}\u{6e}\u{64}\u{61}\u{72}\u{2f}\u{76}\u{69}\u{65}\u{77}\u{2e}\u{70}\u{68}\u{70}\u{3f}\u{76}\u{69}\u{65}\u{77}\u{3d}\u{75}\u{70}\u{63}\u{6f}\u{6d}\u{69}\u{6e}\u{67}\u{22}\u{3e}"))
(assert (or (= x_236 epsilon) (= x_236 literal_42) (= x_236 literal_38) (= x_236 literal_39) (= x_236 literal_35) (= x_236 literal_36)))
(assert (= x_266 (str.++ literal_252 x_236)))
(assert (or (= x_238 epsilon) (= x_238 literal_42) (= x_238 literal_38) (= x_238 literal_39) (= x_238 literal_35) (= x_238 literal_36)))
(assert (= x_267 (str.++ x_253 x_238)))
(assert (= x_270 (str.++ x_259 x_258)))
(assert (= x_271 (str.++ x_261 x_260)))
(assert (= x_272 (str.++ x_263 x_262)))
(assert (= x_273 (str.++ x_265 x_264)))
(assert (= literal_268 "\u{3c}\u{2f}\u{61}\u{3e}\u{3c}\u{2f}\u{64}\u{69}\u{76}\u{3e}\u{5c}\u{6e}"))
(assert (= x_274 (str.++ x_266 literal_268)))
(assert (= literal_269 "\u{3c}\u{2f}\u{61}\u{3e}\u{3c}\u{2f}\u{64}\u{69}\u{76}\u{3e}\u{5c}\u{6e}"))
(assert (= x_275 (str.++ x_267 literal_269)))
(assert (= literal_276 "\u{3c}\u{73}\u{70}\u{61}\u{6e}\u{20}\u{63}\u{6c}\u{61}\u{73}\u{73}\u{3d}\u{22}\u{63}\u{6c}\u{65}\u{61}\u{72}\u{65}\u{72}\u{22}\u{3e}\u{3c}\u{2f}\u{73}\u{70}\u{61}\u{6e}\u{3e}\u{3c}\u{2f}\u{64}\u{69}\u{76}\u{3e}\u{5c}\u{6e}"))
(assert (= x_280 (str.++ x_270 literal_276)))
(assert (= literal_277 "\u{3c}\u{73}\u{70}\u{61}\u{6e}\u{20}\u{63}\u{6c}\u{61}\u{73}\u{73}\u{3d}\u{22}\u{63}\u{6c}\u{65}\u{61}\u{72}\u{65}\u{72}\u{22}\u{3e}\u{3c}\u{2f}\u{73}\u{70}\u{61}\u{6e}\u{3e}\u{3c}\u{2f}\u{64}\u{69}\u{76}\u{3e}\u{5c}\u{6e}"))
(assert (= x_281 (str.++ x_271 literal_277)))
(assert (= literal_278 "\u{3c}\u{73}\u{70}\u{61}\u{6e}\u{20}\u{63}\u{6c}\u{61}\u{73}\u{73}\u{3d}\u{22}\u{63}\u{6c}\u{65}\u{61}\u{72}\u{65}\u{72}\u{22}\u{3e}\u{3c}\u{2f}\u{73}\u{70}\u{61}\u{6e}\u{3e}\u{3c}\u{2f}\u{64}\u{69}\u{76}\u{3e}\u{5c}\u{6e}"))
(assert (= x_282 (str.++ x_272 literal_278)))
(assert (= literal_279 "\u{3c}\u{73}\u{70}\u{61}\u{6e}\u{20}\u{63}\u{6c}\u{61}\u{73}\u{73}\u{3d}\u{22}\u{63}\u{6c}\u{65}\u{61}\u{72}\u{65}\u{72}\u{22}\u{3e}\u{3c}\u{2f}\u{73}\u{70}\u{61}\u{6e}\u{3e}\u{3c}\u{2f}\u{64}\u{69}\u{76}\u{3e}\u{5c}\u{6e}"))
(assert (= x_283 (str.++ x_273 literal_279)))
(assert (= literal_193 ""))
(assert (= x_284 (str.++ literal_193 x_274)))
(assert (= x_285 (str.++ literal_193 x_275)))
(assert (or (= x_291 x_283) (= x_291 x_284) (= x_291 x_281) (= x_291 x_282) (= x_291 literal_193) (= x_291 x_280) (= x_291 x_285)))
(assert (str.in_re x_291 (re.++ (re.* re.allchar) (re.++ (str.to_re "\u{5c}\u{3c}\u{53}\u{43}\u{52}\u{49}\u{50}\u{54}") (re.* re.allchar)))))
(check-sat)
(exit)
